p edge 544 519
e 1 2
e 1 3
e 1 4
e 1 5
e 1 6
e 1 7
e 1 8
e 1 9
e 1 10
e 1 11
e 1 12
e 1 13
e 1 14
e 1 15
e 16 17
e 16 18
e 16 19
e 16 20
e 16 21
e 16 22
e 16 23
e 16 24
e 16 25
e 16 26
e 16 27
e 16 28
e 16 29
e 16 30
e 16 31
e 16 32
e 16 33
e 16 34
e 16 35
e 16 36
e 16 37
e 38 39
e 38 40
e 38 41
e 38 42
e 38 43
e 38 44
e 38 45
e 38 46
e 38 47
e 38 48
e 38 49
e 38 50
e 38 51
e 38 52
e 38 53
e 38 54
e 38 55
e 38 56
e 38 57
e 38 58
e 38 59
e 38 60
e 38 61
e 38 62
e 38 63
e 64 65
e 64 66
e 64 67
e 64 68
e 64 69
e 64 70
e 64 71
e 64 72
e 64 73
e 64 74
e 64 75
e 64 76
e 64 77
e 64 78
e 64 79
e 64 80
e 81 82
e 81 83
e 81 84
e 81 85
e 81 86
e 81 87
e 81 88
e 81 89
e 81 90
e 81 91
e 81 92
e 81 93
e 81 94
e 81 95
e 81 96
e 81 97
e 81 98
e 99 100
e 99 101
e 99 102
e 99 103
e 99 104
e 99 105
e 99 106
e 99 107
e 99 108
e 99 109
e 99 110
e 99 111
e 99 112
e 113 114
e 113 115
e 113 116
e 113 117
e 113 118
e 113 119
e 113 120
e 113 121
e 113 122
e 113 123
e 113 124
e 113 125
e 113 126
e 113 127
e 113 128
e 113 129
e 113 130
e 113 131
e 113 132
e 113 133
e 113 134
e 113 135
e 113 136
e 113 137
e 138 139
e 138 140
e 138 141
e 138 142
e 138 143
e 138 144
e 138 145
e 138 146
e 138 147
e 138 148
e 138 149
e 138 150
e 138 151
e 138 152
e 138 153
e 138 154
e 138 155
e 138 156
e 138 157
e 138 158
e 138 159
e 138 160
e 138 161
e 138 162
e 138 163
e 138 164
e 165 166
e 165 167
e 165 168
e 165 169
e 165 170
e 165 171
e 165 172
e 165 173
e 165 174
e 165 175
e 165 176
e 165 177
e 165 178
e 165 179
e 165 180
e 165 181
e 165 182
e 165 183
e 165 184
e 165 185
e 165 186
e 165 187
e 165 188
e 189 190
e 189 191
e 189 192
e 189 193
e 189 194
e 189 195
e 189 196
e 189 197
e 189 198
e 189 199
e 189 200
e 189 201
e 189 202
e 189 203
e 189 204
e 189 205
e 189 206
e 189 207
e 189 208
e 189 209
e 189 210
e 189 211
e 189 212
e 189 213
e 189 214
e 189 215
e 189 216
e 217 218
e 217 219
e 217 220
e 217 221
e 217 222
e 217 223
e 217 224
e 217 225
e 217 226
e 217 227
e 217 228
e 217 229
e 217 230
e 217 231
e 217 232
e 217 233
e 217 234
e 217 235
e 217 236
e 217 237
e 217 238
e 217 239
e 217 240
e 217 241
e 217 242
e 217 243
e 217 244
e 217 245
e 217 246
e 217 247
e 248 249
e 248 250
e 248 251
e 248 252
e 248 253
e 248 254
e 248 255
e 248 256
e 248 257
e 248 258
e 248 259
e 248 260
e 248 261
e 248 262
e 263 264
e 263 265
e 263 266
e 263 267
e 263 268
e 263 269
e 263 270
e 263 271
e 263 272
e 263 273
e 263 274
e 263 275
e 263 276
e 263 277
e 263 278
e 263 279
e 263 280
e 263 281
e 263 282
e 283 284
e 283 285
e 283 286
e 283 287
e 283 288
e 283 289
e 283 290
e 283 291
e 283 292
e 283 293
e 283 294
e 283 295
e 283 296
e 283 297
e 283 298
e 283 299
e 283 300
e 283 301
e 283 302
e 283 303
e 283 304
e 283 305
e 283 306
e 283 307
e 283 308
e 309 310
e 309 311
e 309 312
e 309 313
e 309 314
e 309 315
e 309 316
e 309 317
e 309 318
e 309 319
e 309 320
e 309 321
e 309 322
e 309 323
e 309 324
e 309 325
e 309 326
e 309 327
e 309 328
e 309 329
e 309 330
e 309 331
e 309 332
e 309 333
e 309 334
e 309 335
e 309 336
e 309 337
e 309 338
e 339 340
e 339 341
e 339 342
e 339 343
e 339 344
e 339 345
e 339 346
e 339 347
e 339 348
e 339 349
e 339 350
e 339 351
e 352 353
e 352 354
e 352 355
e 352 356
e 352 357
e 352 358
e 352 359
e 352 360
e 352 361
e 352 362
e 352 363
e 352 364
e 352 365
e 352 366
e 352 367
e 352 368
e 352 369
e 352 370
e 352 371
e 352 372
e 352 373
e 352 374
e 375 376
e 375 377
e 375 378
e 375 379
e 375 380
e 375 381
e 375 382
e 375 383
e 375 384
e 375 385
e 375 386
e 375 387
e 375 388
e 375 389
e 375 390
e 375 391
e 375 392
e 375 393
e 375 394
e 375 395
e 375 396
e 375 397
e 375 398
e 375 399
e 375 400
e 375 401
e 375 402
e 403 404
e 403 405
e 403 406
e 403 407
e 403 408
e 403 409
e 403 410
e 403 411
e 403 412
e 403 413
e 403 414
e 403 415
e 403 416
e 403 417
e 403 418
e 419 420
e 419 421
e 419 422
e 419 423
e 419 424
e 419 425
e 419 426
e 419 427
e 419 428
e 419 429
e 419 430
e 419 431
e 419 432
e 419 433
e 419 434
e 419 435
e 419 436
e 419 437
e 419 438
e 419 439
e 419 440
e 419 441
e 419 442
e 419 443
e 419 444
e 445 446
e 445 447
e 445 448
e 445 449
e 445 450
e 445 451
e 445 452
e 445 453
e 445 454
e 445 455
e 445 456
e 445 457
e 445 458
e 445 459
e 445 460
e 445 461
e 445 462
e 445 463
e 445 464
e 445 465
e 445 466
e 445 467
e 445 468
e 469 470
e 469 471
e 469 472
e 469 473
e 469 474
e 469 475
e 469 476
e 469 477
e 469 478
e 469 479
e 469 480
e 469 481
e 469 482
e 483 484
e 483 485
e 483 486
e 483 487
e 483 488
e 483 489
e 483 490
e 483 491
e 483 492
e 483 493
e 483 494
e 483 495
e 483 496
e 483 497
e 483 498
e 483 499
e 483 500
e 483 501
e 483 502
e 483 503
e 504 505
e 504 506
e 504 507
e 504 508
e 504 509
e 504 510
e 504 511
e 504 512
e 504 513
e 504 514
e 504 515
e 504 516
e 504 517
e 504 518
e 504 519
e 504 520
e 504 521
e 522 523
e 522 524
e 522 525
e 522 526
e 522 527
e 522 528
e 522 529
e 522 530
e 522 531
e 522 532
e 522 533
e 522 534
e 522 535
e 522 536
e 522 537
e 522 538
e 522 539
e 522 540
e 522 541
e 522 542
e 522 543
e 522 544
